c Generated map
c Size: 30 * 30, weights in range: 1 to 10, walls: True, with ratio 0.05
c dim 1 of 3
c
p sp 900 1566
c graph contains 900 nodes and 1566 arcs
c
a 1 31 10
a 31 1 10
a 1 2 7
a 2 1 7
a 2 32 3
a 32 2 3
a 2 3 9
a 3 2 9
a 3 33 4
a 33 3 4
a 3 4 9
a 4 3 9
a 4 5 4
a 5 4 4
a 5 35 9
a 35 5 9
a 5 6 5
a 6 5 5
a 6 36 9
a 36 6 9
a 6 7 1
a 7 6 1
a 7 37 4
a 37 7 4
a 7 8 6
a 8 7 6
a 8 38 8
a 38 8 8
a 8 9 6
a 9 8 6
a 9 39 5
a 39 9 5
a 9 10 4
a 10 9 4
a 10 40 4
a 40 10 4
a 10 11 1
a 11 10 1
a 11 41 10
a 41 11 10
a 11 12 2
a 12 11 2
a 12 42 3
a 42 12 3
a 12 13 2
a 13 12 2
a 13 43 3
a 43 13 3
a 13 14 2
a 14 13 2
a 14 44 1
a 44 14 1
a 14 15 7
a 15 14 7
a 15 45 9
a 45 15 9
a 15 16 5
a 16 15 5
a 16 46 7
a 46 16 7
a 16 17 2
a 17 16 2
a 17 47 4
a 47 17 4
a 17 18 4
a 18 17 4
a 18 48 7
a 48 18 7
a 18 19 2
a 19 18 2
a 19 49 10
a 49 19 10
a 19 20 7
a 20 19 7
a 20 50 6
a 50 20 6
a 22 52 2
a 52 22 2
a 22 23 3
a 23 22 3
a 23 53 3
a 53 23 3
a 23 24 2
a 24 23 2
a 24 25 10
a 25 24 10
a 25 55 9
a 55 25 9
a 25 26 8
a 26 25 8
a 26 56 1
a 56 26 1
a 26 27 4
a 27 26 4
a 27 57 9
a 57 27 9
a 27 28 7
a 28 27 7
a 28 58 1
a 58 28 1
a 30 60 6
a 60 30 6
a 31 61 1
a 61 31 1
a 31 32 5
a 32 31 5
a 32 62 1
a 62 32 1
a 32 33 2
a 33 32 2
a 33 63 2
a 63 33 2
a 35 65 8
a 65 35 8
a 35 36 8
a 36 35 8
a 36 66 9
a 66 36 9
a 36 37 1
a 37 36 1
a 37 67 9
a 67 37 9
a 37 38 3
a 38 37 3
a 38 68 6
a 68 38 6
a 38 39 7
a 39 38 7
a 39 69 8
a 69 39 8
a 39 40 10
a 40 39 10
a 40 41 3
a 41 40 3
a 41 71 3
a 71 41 3
a 41 42 6
a 42 41 6
a 42 72 1
a 72 42 1
a 42 43 9
a 43 42 9
a 43 73 8
a 73 43 8
a 43 44 10
a 44 43 10
a 44 74 8
a 74 44 8
a 44 45 9
a 45 44 9
a 45 75 4
a 75 45 4
a 45 46 9
a 46 45 9
a 46 76 6
a 76 46 6
a 46 47 9
a 47 46 9
a 47 77 6
a 77 47 6
a 47 48 3
a 48 47 3
a 48 78 4
a 78 48 4
a 48 49 5
a 49 48 5
a 49 79 4
a 79 49 4
a 49 50 5
a 50 49 5
a 50 80 10
a 80 50 10
a 50 51 9
a 51 50 9
a 51 81 7
a 81 51 7
a 51 52 9
a 52 51 9
a 52 82 9
a 82 52 9
a 52 53 3
a 53 52 3
a 53 83 7
a 83 53 7
a 55 85 5
a 85 55 5
a 55 56 5
a 56 55 5
a 56 86 3
a 86 56 3
a 56 57 4
a 57 56 4
a 57 87 10
a 87 57 10
a 57 58 4
a 58 57 4
a 58 88 3
a 88 58 3
a 58 59 7
a 59 58 7
a 59 89 3
a 89 59 3
a 59 60 10
a 60 59 10
a 60 90 8
a 90 60 8
a 61 91 2
a 91 61 2
a 61 62 1
a 62 61 1
a 62 63 8
a 63 62 8
a 63 93 7
a 93 63 7
a 63 64 5
a 64 63 5
a 64 94 6
a 94 64 6
a 64 65 1
a 65 64 1
a 65 95 6
a 95 65 6
a 65 66 10
a 66 65 10
a 66 96 1
a 96 66 1
a 66 67 7
a 67 66 7
a 67 97 10
a 97 67 10
a 67 68 10
a 68 67 10
a 68 98 4
a 98 68 4
a 68 69 10
a 69 68 10
a 69 99 5
a 99 69 5
a 71 101 1
a 101 71 1
a 71 72 2
a 72 71 2
a 72 102 3
a 102 72 3
a 72 73 4
a 73 72 4
a 73 103 9
a 103 73 9
a 73 74 8
a 74 73 8
a 74 104 9
a 104 74 9
a 74 75 2
a 75 74 2
a 75 105 4
a 105 75 4
a 75 76 9
a 76 75 9
a 76 106 5
a 106 76 5
a 76 77 7
a 77 76 7
a 77 107 8
a 107 77 8
a 77 78 2
a 78 77 2
a 78 108 10
a 108 78 10
a 78 79 4
a 79 78 4
a 79 109 4
a 109 79 4
a 79 80 10
a 80 79 10
a 80 110 8
a 110 80 8
a 80 81 7
a 81 80 7
a 81 111 4
a 111 81 4
a 81 82 2
a 82 81 2
a 82 112 9
a 112 82 9
a 82 83 8
a 83 82 8
a 83 84 7
a 84 83 7
a 84 85 4
a 85 84 4
a 85 115 5
a 115 85 5
a 85 86 10
a 86 85 10
a 86 116 10
a 116 86 10
a 86 87 8
a 87 86 8
a 87 117 2
a 117 87 2
a 87 88 5
a 88 87 5
a 88 118 6
a 118 88 6
a 88 89 7
a 89 88 7
a 89 119 2
a 119 89 2
a 89 90 2
a 90 89 2
a 90 120 9
a 120 90 9
a 91 121 1
a 121 91 1
a 93 123 3
a 123 93 3
a 93 94 6
a 94 93 6
a 94 124 9
a 124 94 9
a 94 95 7
a 95 94 7
a 95 125 4
a 125 95 4
a 95 96 7
a 96 95 7
a 96 126 2
a 126 96 2
a 96 97 1
a 97 96 1
a 97 127 2
a 127 97 2
a 97 98 2
a 98 97 2
a 98 128 3
a 128 98 3
a 98 99 2
a 99 98 2
a 99 129 5
a 129 99 5
a 99 100 10
a 100 99 10
a 100 130 4
a 130 100 4
a 100 101 7
a 101 100 7
a 101 131 8
a 131 101 8
a 101 102 8
a 102 101 8
a 102 132 4
a 132 102 4
a 102 103 6
a 103 102 6
a 103 133 3
a 133 103 3
a 103 104 3
a 104 103 3
a 104 134 7
a 134 104 7
a 104 105 7
a 105 104 7
a 105 135 2
a 135 105 2
a 105 106 8
a 106 105 8
a 106 136 7
a 136 106 7
a 106 107 5
a 107 106 5
a 107 108 8
a 108 107 8
a 108 138 3
a 138 108 3
a 108 109 1
a 109 108 1
a 109 139 2
a 139 109 2
a 109 110 3
a 110 109 3
a 110 140 1
a 140 110 1
a 110 111 3
a 111 110 3
a 111 141 8
a 141 111 8
a 111 112 6
a 112 111 6
a 112 142 2
a 142 112 2
a 115 145 10
a 145 115 10
a 115 116 6
a 116 115 6
a 116 146 8
a 146 116 8
a 116 117 2
a 117 116 2
a 117 147 4
a 147 117 4
a 117 118 4
a 118 117 4
a 118 148 2
a 148 118 2
a 118 119 5
a 119 118 5
a 119 149 6
a 149 119 6
a 119 120 10
a 120 119 10
a 120 150 9
a 150 120 9
a 121 151 2
a 151 121 2
a 121 122 3
a 122 121 3
a 122 123 7
a 123 122 7
a 123 153 9
a 153 123 9
a 123 124 9
a 124 123 9
a 124 154 8
a 154 124 8
a 124 125 3
a 125 124 3
a 125 155 7
a 155 125 7
a 125 126 10
a 126 125 10
a 126 156 2
a 156 126 2
a 126 127 6
a 127 126 6
a 127 157 6
a 157 127 6
a 127 128 8
a 128 127 8
a 128 158 1
a 158 128 1
a 128 129 6
a 129 128 6
a 129 159 2
a 159 129 2
a 129 130 7
a 130 129 7
a 130 160 8
a 160 130 8
a 130 131 4
a 131 130 4
a 131 161 3
a 161 131 3
a 131 132 1
a 132 131 1
a 132 162 5
a 162 132 5
a 132 133 8
a 133 132 8
a 133 163 4
a 163 133 4
a 133 134 2
a 134 133 2
a 134 164 9
a 164 134 9
a 134 135 7
a 135 134 7
a 135 165 4
a 165 135 4
a 135 136 2
a 136 135 2
a 136 166 4
a 166 136 4
a 138 168 7
a 168 138 7
a 138 139 10
a 139 138 10
a 139 169 8
a 169 139 8
a 139 140 8
a 140 139 8
a 140 170 9
a 170 140 9
a 140 141 8
a 141 140 8
a 141 171 10
a 171 141 10
a 141 142 8
a 142 141 8
a 142 172 10
a 172 142 10
a 142 143 8
a 143 142 8
a 143 173 6
a 173 143 6
a 143 144 3
a 144 143 3
a 144 145 1
a 145 144 1
a 145 175 2
a 175 145 2
a 145 146 9
a 146 145 9
a 146 176 6
a 176 146 6
a 146 147 8
a 147 146 8
a 147 177 6
a 177 147 6
a 147 148 2
a 148 147 2
a 148 178 7
a 178 148 7
a 148 149 2
a 149 148 2
a 149 179 8
a 179 149 8
a 149 150 9
a 150 149 9
a 150 180 6
a 180 150 6
a 151 181 4
a 181 151 4
a 153 183 9
a 183 153 9
a 153 154 9
a 154 153 9
a 154 184 1
a 184 154 1
a 154 155 2
a 155 154 2
a 155 185 9
a 185 155 9
a 155 156 4
a 156 155 4
a 156 157 2
a 157 156 2
a 157 187 6
a 187 157 6
a 157 158 3
a 158 157 3
a 158 159 5
a 159 158 5
a 159 189 9
a 189 159 9
a 159 160 7
a 160 159 7
a 160 190 9
a 190 160 9
a 160 161 7
a 161 160 7
a 161 191 10
a 191 161 10
a 161 162 8
a 162 161 8
a 162 192 1
a 192 162 1
a 162 163 8
a 163 162 8
a 163 193 4
a 193 163 4
a 163 164 3
a 164 163 3
a 164 194 10
a 194 164 10
a 164 165 4
a 165 164 4
a 165 195 10
a 195 165 10
a 165 166 7
a 166 165 7
a 166 196 10
a 196 166 10
a 166 167 3
a 167 166 3
a 167 197 1
a 197 167 1
a 167 168 5
a 168 167 5
a 168 198 3
a 198 168 3
a 168 169 7
a 169 168 7
a 169 199 5
a 199 169 5
a 169 170 8
a 170 169 8
a 170 200 10
a 200 170 10
a 170 171 10
a 171 170 10
a 171 201 3
a 201 171 3
a 171 172 5
a 172 171 5
a 172 202 10
a 202 172 10
a 172 173 3
a 173 172 3
a 173 203 3
a 203 173 3
a 175 205 2
a 205 175 2
a 175 176 2
a 176 175 2
a 176 206 7
a 206 176 7
a 176 177 4
a 177 176 4
a 177 207 9
a 207 177 9
a 177 178 2
a 178 177 2
a 178 179 6
a 179 178 6
a 179 209 10
a 209 179 10
a 179 180 2
a 180 179 2
a 180 210 4
a 210 180 4
a 183 213 1
a 213 183 1
a 183 184 4
a 184 183 4
a 184 214 2
a 214 184 2
a 184 185 1
a 185 184 1
a 185 215 3
a 215 185 3
a 187 217 10
a 217 187 10
a 189 219 10
a 219 189 10
a 189 190 4
a 190 189 4
a 190 220 5
a 220 190 5
a 190 191 4
a 191 190 4
a 191 221 6
a 221 191 6
a 191 192 9
a 192 191 9
a 192 222 3
a 222 192 3
a 192 193 5
a 193 192 5
a 193 223 2
a 223 193 2
a 193 194 8
a 194 193 8
a 194 224 4
a 224 194 4
a 194 195 9
a 195 194 9
a 195 225 8
a 225 195 8
a 195 196 1
a 196 195 1
a 196 226 1
a 226 196 1
a 196 197 5
a 197 196 5
a 197 227 6
a 227 197 6
a 197 198 10
a 198 197 10
a 198 228 6
a 228 198 6
a 198 199 6
a 199 198 6
a 199 229 8
a 229 199 8
a 199 200 1
a 200 199 1
a 200 201 3
a 201 200 3
a 201 231 3
a 231 201 3
a 201 202 2
a 202 201 2
a 202 232 4
a 232 202 4
a 202 203 5
a 203 202 5
a 203 233 4
a 233 203 4
a 203 204 5
a 204 203 5
a 204 234 7
a 234 204 7
a 204 205 10
a 205 204 10
a 205 235 2
a 235 205 2
a 205 206 4
a 206 205 4
a 206 236 5
a 236 206 5
a 206 207 1
a 207 206 1
a 207 237 1
a 237 207 1
a 209 239 1
a 239 209 1
a 209 210 6
a 210 209 6
a 210 240 6
a 240 210 6
a 212 242 9
a 242 212 9
a 212 213 9
a 213 212 9
a 213 243 2
a 243 213 2
a 213 214 9
a 214 213 9
a 214 244 8
a 244 214 8
a 214 215 2
a 215 214 2
a 215 245 9
a 245 215 9
a 217 247 4
a 247 217 4
a 217 218 8
a 218 217 8
a 218 248 6
a 248 218 6
a 218 219 8
a 219 218 8
a 219 249 3
a 249 219 3
a 219 220 8
a 220 219 8
a 220 250 1
a 250 220 1
a 220 221 7
a 221 220 7
a 221 251 9
a 251 221 9
a 221 222 10
a 222 221 10
a 222 252 3
a 252 222 3
a 222 223 6
a 223 222 6
a 223 253 8
a 253 223 8
a 223 224 10
a 224 223 10
a 224 254 7
a 254 224 7
a 224 225 6
a 225 224 6
a 225 255 3
a 255 225 3
a 225 226 10
a 226 225 10
a 226 256 3
a 256 226 3
a 226 227 8
a 227 226 8
a 227 257 5
a 257 227 5
a 227 228 1
a 228 227 1
a 228 258 4
a 258 228 4
a 228 229 2
a 229 228 2
a 229 259 3
a 259 229 3
a 231 261 4
a 261 231 4
a 231 232 3
a 232 231 3
a 232 262 6
a 262 232 6
a 232 233 4
a 233 232 4
a 233 263 4
a 263 233 4
a 233 234 7
a 234 233 7
a 234 264 5
a 264 234 5
a 234 235 4
a 235 234 4
a 235 265 1
a 265 235 1
a 235 236 8
a 236 235 8
a 236 266 2
a 266 236 2
a 236 237 9
a 237 236 9
a 237 267 4
a 267 237 4
a 237 238 1
a 238 237 1
a 238 268 1
a 268 238 1
a 238 239 6
a 239 238 6
a 239 269 6
a 269 239 6
a 239 240 4
a 240 239 4
a 240 270 9
a 270 240 9
a 241 271 2
a 271 241 2
a 241 242 1
a 242 241 1
a 242 272 4
a 272 242 4
a 242 243 4
a 243 242 4
a 243 244 7
a 244 243 7
a 244 274 2
a 274 244 2
a 244 245 1
a 245 244 1
a 245 275 6
a 275 245 6
a 245 246 6
a 246 245 6
a 246 276 2
a 276 246 2
a 246 247 7
a 247 246 7
a 247 277 4
a 277 247 4
a 247 248 6
a 248 247 6
a 248 249 2
a 249 248 2
a 249 279 3
a 279 249 3
a 249 250 3
a 250 249 3
a 250 280 5
a 280 250 5
a 250 251 7
a 251 250 7
a 251 281 9
a 281 251 9
a 251 252 5
a 252 251 5
a 252 282 8
a 282 252 8
a 252 253 7
a 253 252 7
a 253 283 9
a 283 253 9
a 253 254 10
a 254 253 10
a 254 255 4
a 255 254 4
a 255 285 10
a 285 255 10
a 255 256 3
a 256 255 3
a 256 286 4
a 286 256 4
a 256 257 2
a 257 256 2
a 257 287 7
a 287 257 7
a 257 258 8
a 258 257 8
a 258 288 7
a 288 258 7
a 258 259 2
a 259 258 2
a 259 289 3
a 289 259 3
a 259 260 10
a 260 259 10
a 260 290 8
a 290 260 8
a 260 261 5
a 261 260 5
a 261 291 2
a 291 261 2
a 261 262 1
a 262 261 1
a 262 292 7
a 292 262 7
a 262 263 8
a 263 262 8
a 263 293 6
a 293 263 6
a 263 264 3
a 264 263 3
a 264 294 1
a 294 264 1
a 264 265 9
a 265 264 9
a 265 295 9
a 295 265 9
a 265 266 4
a 266 265 4
a 266 267 6
a 267 266 6
a 267 297 4
a 297 267 4
a 267 268 9
a 268 267 9
a 268 298 2
a 298 268 2
a 268 269 2
a 269 268 2
a 269 299 10
a 299 269 10
a 269 270 7
a 270 269 7
a 270 300 3
a 300 270 3
a 271 301 8
a 301 271 8
a 271 272 8
a 272 271 8
a 272 302 9
a 302 272 9
a 274 304 4
a 304 274 4
a 274 275 3
a 275 274 3
a 275 305 2
a 305 275 2
a 275 276 1
a 276 275 1
a 276 306 5
a 306 276 5
a 276 277 2
a 277 276 2
a 277 307 3
a 307 277 3
a 279 309 9
a 309 279 9
a 279 280 7
a 280 279 7
a 280 310 8
a 310 280 8
a 280 281 9
a 281 280 9
a 281 311 4
a 311 281 4
a 281 282 10
a 282 281 10
a 282 283 10
a 283 282 10
a 283 313 8
a 313 283 8
a 285 315 4
a 315 285 4
a 285 286 4
a 286 285 4
a 286 316 1
a 316 286 1
a 286 287 4
a 287 286 4
a 287 317 4
a 317 287 4
a 287 288 2
a 288 287 2
a 288 318 7
a 318 288 7
a 288 289 3
a 289 288 3
a 289 319 2
a 319 289 2
a 289 290 10
a 290 289 10
a 290 320 5
a 320 290 5
a 290 291 6
a 291 290 6
a 291 321 2
a 321 291 2
a 291 292 1
a 292 291 1
a 292 322 1
a 322 292 1
a 292 293 9
a 293 292 9
a 293 323 7
a 323 293 7
a 293 294 3
a 294 293 3
a 294 324 1
a 324 294 1
a 294 295 5
a 295 294 5
a 295 325 5
a 325 295 5
a 297 327 2
a 327 297 2
a 297 298 4
a 298 297 4
a 298 328 7
a 328 298 7
a 298 299 8
a 299 298 8
a 299 329 7
a 329 299 7
a 299 300 6
a 300 299 6
a 300 330 5
a 330 300 5
a 301 331 3
a 331 301 3
a 301 302 1
a 302 301 1
a 302 332 7
a 332 302 7
a 302 303 7
a 303 302 7
a 303 333 1
a 333 303 1
a 303 304 6
a 304 303 6
a 304 334 3
a 334 304 3
a 304 305 10
a 305 304 10
a 305 335 1
a 335 305 1
a 305 306 4
a 306 305 4
a 306 336 8
a 336 306 8
a 306 307 9
a 307 306 9
a 307 337 5
a 337 307 5
a 307 308 1
a 308 307 1
a 308 338 5
a 338 308 5
a 308 309 4
a 309 308 4
a 309 339 5
a 339 309 5
a 309 310 4
a 310 309 4
a 310 340 2
a 340 310 2
a 310 311 5
a 311 310 5
a 311 341 1
a 341 311 1
a 313 343 9
a 343 313 9
a 313 314 8
a 314 313 8
a 314 344 1
a 344 314 1
a 314 315 4
a 315 314 4
a 315 345 2
a 345 315 2
a 315 316 4
a 316 315 4
a 316 346 4
a 346 316 4
a 316 317 5
a 317 316 5
a 317 347 4
a 347 317 4
a 317 318 8
a 318 317 8
a 318 348 10
a 348 318 10
a 318 319 1
a 319 318 1
a 319 349 10
a 349 319 10
a 319 320 10
a 320 319 10
a 320 350 1
a 350 320 1
a 320 321 3
a 321 320 3
a 321 351 7
a 351 321 7
a 321 322 8
a 322 321 8
a 322 352 1
a 352 322 1
a 322 323 10
a 323 322 10
a 323 353 5
a 353 323 5
a 323 324 8
a 324 323 8
a 324 354 8
a 354 324 8
a 324 325 5
a 325 324 5
a 325 355 7
a 355 325 7
a 325 326 10
a 326 325 10
a 326 356 5
a 356 326 5
a 326 327 1
a 327 326 1
a 327 357 10
a 357 327 10
a 327 328 6
a 328 327 6
a 328 358 7
a 358 328 7
a 328 329 1
a 329 328 1
a 329 359 3
a 359 329 3
a 329 330 5
a 330 329 5
a 330 360 5
a 360 330 5
a 331 361 10
a 361 331 10
a 331 332 10
a 332 331 10
a 332 362 4
a 362 332 4
a 332 333 3
a 333 332 3
a 333 363 5
a 363 333 5
a 333 334 2
a 334 333 2
a 334 364 6
a 364 334 6
a 334 335 2
a 335 334 2
a 335 365 3
a 365 335 3
a 335 336 9
a 336 335 9
a 336 366 1
a 366 336 1
a 336 337 10
a 337 336 10
a 337 367 4
a 367 337 4
a 337 338 1
a 338 337 1
a 338 368 1
a 368 338 1
a 338 339 4
a 339 338 4
a 339 369 5
a 369 339 5
a 339 340 2
a 340 339 2
a 340 370 3
a 370 340 3
a 340 341 4
a 341 340 4
a 341 371 8
a 371 341 8
a 341 342 3
a 342 341 3
a 342 372 6
a 372 342 6
a 342 343 10
a 343 342 10
a 343 373 1
a 373 343 1
a 343 344 7
a 344 343 7
a 344 374 8
a 374 344 8
a 344 345 1
a 345 344 1
a 345 375 8
a 375 345 8
a 345 346 7
a 346 345 7
a 346 376 5
a 376 346 5
a 346 347 3
a 347 346 3
a 347 377 9
a 377 347 9
a 347 348 3
a 348 347 3
a 348 378 6
a 378 348 6
a 348 349 1
a 349 348 1
a 349 379 5
a 379 349 5
a 349 350 10
a 350 349 10
a 350 380 10
a 380 350 10
a 350 351 6
a 351 350 6
a 351 381 3
a 381 351 3
a 351 352 9
a 352 351 9
a 352 382 8
a 382 352 8
a 352 353 1
a 353 352 1
a 353 383 6
a 383 353 6
a 353 354 8
a 354 353 8
a 354 384 7
a 384 354 7
a 354 355 8
a 355 354 8
a 355 385 7
a 385 355 7
a 355 356 10
a 356 355 10
a 356 386 6
a 386 356 6
a 356 357 4
a 357 356 4
a 357 387 5
a 387 357 5
a 357 358 9
a 358 357 9
a 358 388 9
a 388 358 9
a 358 359 2
a 359 358 2
a 359 389 6
a 389 359 6
a 359 360 1
a 360 359 1
a 360 390 4
a 390 360 4
a 361 391 7
a 391 361 7
a 361 362 7
a 362 361 7
a 362 392 7
a 392 362 7
a 362 363 5
a 363 362 5
a 363 393 6
a 393 363 6
a 363 364 7
a 364 363 7
a 364 394 7
a 394 364 7
a 364 365 5
a 365 364 5
a 365 395 5
a 395 365 5
a 365 366 9
a 366 365 9
a 366 396 9
a 396 366 9
a 366 367 1
a 367 366 1
a 367 397 10
a 397 367 10
a 367 368 9
a 368 367 9
a 368 398 10
a 398 368 10
a 368 369 6
a 369 368 6
a 369 399 9
a 399 369 9
a 369 370 5
a 370 369 5
a 370 400 3
a 400 370 3
a 370 371 5
a 371 370 5
a 371 372 8
a 372 371 8
a 372 402 10
a 402 372 10
a 372 373 8
a 373 372 8
a 373 403 9
a 403 373 9
a 373 374 1
a 374 373 1
a 374 404 4
a 404 374 4
a 374 375 7
a 375 374 7
a 375 405 4
a 405 375 4
a 375 376 10
a 376 375 10
a 376 406 10
a 406 376 10
a 376 377 3
a 377 376 3
a 377 407 3
a 407 377 3
a 377 378 10
a 378 377 10
a 378 408 9
a 408 378 9
a 378 379 7
a 379 378 7
a 379 409 6
a 409 379 6
a 379 380 8
a 380 379 8
a 380 410 7
a 410 380 7
a 380 381 4
a 381 380 4
a 381 411 9
a 411 381 9
a 381 382 10
a 382 381 10
a 382 412 3
a 412 382 3
a 382 383 4
a 383 382 4
a 383 413 3
a 413 383 3
a 383 384 4
a 384 383 4
a 384 414 4
a 414 384 4
a 384 385 9
a 385 384 9
a 385 415 3
a 415 385 3
a 385 386 4
a 386 385 4
a 386 416 4
a 416 386 4
a 386 387 6
a 387 386 6
a 387 388 7
a 388 387 7
a 388 418 9
a 418 388 9
a 388 389 1
a 389 388 1
a 389 419 3
a 419 389 3
a 389 390 8
a 390 389 8
a 390 420 6
a 420 390 6
a 391 421 2
a 421 391 2
a 391 392 7
a 392 391 7
a 392 422 8
a 422 392 8
a 392 393 6
a 393 392 6
a 393 423 1
a 423 393 1
a 393 394 10
a 394 393 10
a 394 424 2
a 424 394 2
a 394 395 5
a 395 394 5
a 395 425 5
a 425 395 5
a 395 396 10
a 396 395 10
a 396 426 5
a 426 396 5
a 396 397 2
a 397 396 2
a 397 427 9
a 427 397 9
a 397 398 1
a 398 397 1
a 398 428 4
a 428 398 4
a 398 399 4
a 399 398 4
a 399 429 6
a 429 399 6
a 399 400 2
a 400 399 2
a 400 430 5
a 430 400 5
a 402 432 7
a 432 402 7
a 402 403 7
a 403 402 7
a 403 433 6
a 433 403 6
a 403 404 5
a 404 403 5
a 404 434 8
a 434 404 8
a 404 405 8
a 405 404 8
a 405 435 7
a 435 405 7
a 405 406 4
a 406 405 4
a 406 436 9
a 436 406 9
a 406 407 2
a 407 406 2
a 407 437 6
a 437 407 6
a 407 408 5
a 408 407 5
a 408 409 2
a 409 408 2
a 409 439 8
a 439 409 8
a 409 410 5
a 410 409 5
a 410 440 3
a 440 410 3
a 410 411 8
a 411 410 8
a 411 441 5
a 441 411 5
a 411 412 8
a 412 411 8
a 412 442 1
a 442 412 1
a 412 413 1
a 413 412 1
a 413 443 8
a 443 413 8
a 413 414 6
a 414 413 6
a 414 444 1
a 444 414 1
a 414 415 1
a 415 414 1
a 415 445 6
a 445 415 6
a 415 416 7
a 416 415 7
a 416 446 2
a 446 416 2
a 418 448 7
a 448 418 7
a 418 419 1
a 419 418 1
a 419 449 3
a 449 419 3
a 419 420 9
a 420 419 9
a 420 450 1
a 450 420 1
a 421 451 1
a 451 421 1
a 421 422 4
a 422 421 4
a 422 452 1
a 452 422 1
a 422 423 9
a 423 422 9
a 423 453 7
a 453 423 7
a 423 424 3
a 424 423 3
a 424 454 7
a 454 424 7
a 424 425 6
a 425 424 6
a 425 455 4
a 455 425 4
a 425 426 1
a 426 425 1
a 426 456 5
a 456 426 5
a 426 427 10
a 427 426 10
a 427 457 6
a 457 427 6
a 427 428 8
a 428 427 8
a 428 458 8
a 458 428 8
a 428 429 3
a 429 428 3
a 429 459 9
a 459 429 9
a 429 430 5
a 430 429 5
a 430 460 1
a 460 430 1
a 430 431 3
a 431 430 3
a 431 461 3
a 461 431 3
a 431 432 7
a 432 431 7
a 432 462 9
a 462 432 9
a 432 433 8
a 433 432 8
a 433 463 10
a 463 433 10
a 433 434 1
a 434 433 1
a 434 464 8
a 464 434 8
a 434 435 4
a 435 434 4
a 435 465 10
a 465 435 10
a 435 436 1
a 436 435 1
a 436 466 1
a 466 436 1
a 436 437 8
a 437 436 8
a 437 467 7
a 467 437 7
a 439 469 6
a 469 439 6
a 439 440 8
a 440 439 8
a 440 470 2
a 470 440 2
a 440 441 3
a 441 440 3
a 441 471 10
a 471 441 10
a 441 442 2
a 442 441 2
a 442 472 5
a 472 442 5
a 442 443 5
a 443 442 5
a 443 473 4
a 473 443 4
a 443 444 3
a 444 443 3
a 444 474 7
a 474 444 7
a 444 445 2
a 445 444 2
a 445 475 9
a 475 445 9
a 445 446 5
a 446 445 5
a 446 476 7
a 476 446 7
a 446 447 1
a 447 446 1
a 447 477 8
a 477 447 8
a 447 448 10
a 448 447 10
a 448 478 4
a 478 448 4
a 448 449 2
a 449 448 2
a 449 479 4
a 479 449 4
a 449 450 4
a 450 449 4
a 450 480 9
a 480 450 9
a 451 481 5
a 481 451 5
a 451 452 8
a 452 451 8
a 452 453 10
a 453 452 10
a 453 483 3
a 483 453 3
a 453 454 10
a 454 453 10
a 454 484 10
a 484 454 10
a 454 455 8
a 455 454 8
a 455 485 2
a 485 455 2
a 455 456 2
a 456 455 2
a 456 486 2
a 486 456 2
a 456 457 6
a 457 456 6
a 457 487 6
a 487 457 6
a 457 458 10
a 458 457 10
a 458 488 9
a 488 458 9
a 458 459 5
a 459 458 5
a 459 489 4
a 489 459 4
a 459 460 3
a 460 459 3
a 460 490 3
a 490 460 3
a 460 461 9
a 461 460 9
a 461 491 1
a 491 461 1
a 461 462 1
a 462 461 1
a 462 492 2
a 492 462 2
a 462 463 6
a 463 462 6
a 463 493 9
a 493 463 9
a 463 464 2
a 464 463 2
a 464 494 9
a 494 464 9
a 464 465 10
a 465 464 10
a 465 495 3
a 495 465 3
a 465 466 3
a 466 465 3
a 466 496 3
a 496 466 3
a 466 467 1
a 467 466 1
a 467 497 2
a 497 467 2
a 467 468 9
a 468 467 9
a 468 498 8
a 498 468 8
a 468 469 10
a 469 468 10
a 469 499 5
a 499 469 5
a 469 470 1
a 470 469 1
a 470 500 1
a 500 470 1
a 470 471 3
a 471 470 3
a 471 472 6
a 472 471 6
a 472 502 7
a 502 472 7
a 472 473 5
a 473 472 5
a 473 503 2
a 503 473 2
a 473 474 6
a 474 473 6
a 474 504 7
a 504 474 7
a 474 475 2
a 475 474 2
a 475 505 1
a 505 475 1
a 475 476 7
a 476 475 7
a 476 506 8
a 506 476 8
a 476 477 2
a 477 476 2
a 477 507 8
a 507 477 8
a 477 478 9
a 478 477 9
a 478 508 8
a 508 478 8
a 478 479 5
a 479 478 5
a 479 509 4
a 509 479 4
a 479 480 3
a 480 479 3
a 480 510 9
a 510 480 9
a 481 511 1
a 511 481 1
a 483 513 4
a 513 483 4
a 483 484 5
a 484 483 5
a 484 514 5
a 514 484 5
a 484 485 8
a 485 484 8
a 485 515 6
a 515 485 6
a 485 486 6
a 486 485 6
a 486 516 6
a 516 486 6
a 486 487 9
a 487 486 9
a 487 517 5
a 517 487 5
a 487 488 4
a 488 487 4
a 488 518 8
a 518 488 8
a 488 489 3
a 489 488 3
a 489 519 7
a 519 489 7
a 489 490 8
a 490 489 8
a 490 520 10
a 520 490 10
a 490 491 4
a 491 490 4
a 491 492 5
a 492 491 5
a 492 522 7
a 522 492 7
a 492 493 1
a 493 492 1
a 493 523 1
a 523 493 1
a 493 494 8
a 494 493 8
a 494 524 9
a 524 494 9
a 494 495 10
a 495 494 10
a 495 525 10
a 525 495 10
a 495 496 6
a 496 495 6
a 496 526 3
a 526 496 3
a 496 497 4
a 497 496 4
a 497 527 9
a 527 497 9
a 497 498 2
a 498 497 2
a 498 499 10
a 499 498 10
a 499 529 5
a 529 499 5
a 499 500 8
a 500 499 8
a 500 530 2
a 530 500 2
a 502 532 2
a 532 502 2
a 502 503 9
a 503 502 9
a 503 533 2
a 533 503 2
a 503 504 9
a 504 503 9
a 504 534 9
a 534 504 9
a 504 505 5
a 505 504 5
a 505 535 3
a 535 505 3
a 505 506 1
a 506 505 1
a 506 536 7
a 536 506 7
a 506 507 5
a 507 506 5
a 507 537 2
a 537 507 2
a 507 508 2
a 508 507 2
a 508 538 8
a 538 508 8
a 508 509 2
a 509 508 2
a 509 539 4
a 539 509 4
a 509 510 1
a 510 509 1
a 510 540 9
a 540 510 9
a 511 541 5
a 541 511 5
a 511 512 3
a 512 511 3
a 512 542 5
a 542 512 5
a 512 513 2
a 513 512 2
a 513 514 4
a 514 513 4
a 514 544 10
a 544 514 10
a 514 515 2
a 515 514 2
a 515 545 9
a 545 515 9
a 515 516 6
a 516 515 6
a 516 546 7
a 546 516 7
a 516 517 1
a 517 516 1
a 517 547 1
a 547 517 1
a 517 518 4
a 518 517 4
a 518 519 5
a 519 518 5
a 519 549 4
a 549 519 4
a 519 520 7
a 520 519 7
a 520 550 4
a 550 520 4
a 522 552 10
a 552 522 10
a 522 523 1
a 523 522 1
a 523 553 10
a 553 523 10
a 523 524 4
a 524 523 4
a 524 554 7
a 554 524 7
a 524 525 7
a 525 524 7
a 525 555 3
a 555 525 3
a 525 526 9
a 526 525 9
a 526 556 2
a 556 526 2
a 526 527 8
a 527 526 8
a 527 557 10
a 557 527 10
a 529 559 6
a 559 529 6
a 529 530 10
a 530 529 10
a 530 560 10
a 560 530 10
a 530 531 2
a 531 530 2
a 531 561 9
a 561 531 9
a 531 532 5
a 532 531 5
a 532 562 8
a 562 532 8
a 532 533 10
a 533 532 10
a 533 563 8
a 563 533 8
a 533 534 9
a 534 533 9
a 534 564 4
a 564 534 4
a 534 535 4
a 535 534 4
a 535 565 9
a 565 535 9
a 535 536 2
a 536 535 2
a 536 566 2
a 566 536 2
a 536 537 3
a 537 536 3
a 537 567 5
a 567 537 5
a 537 538 2
a 538 537 2
a 538 568 7
a 568 538 7
a 538 539 10
a 539 538 10
a 539 569 1
a 569 539 1
a 539 540 8
a 540 539 8
a 540 570 2
a 570 540 2
a 541 571 10
a 571 541 10
a 541 542 3
a 542 541 3
a 542 572 7
a 572 542 7
a 544 574 2
a 574 544 2
a 544 545 7
a 545 544 7
a 545 575 6
a 575 545 6
a 545 546 7
a 546 545 7
a 546 576 4
a 576 546 4
a 546 547 4
a 547 546 4
a 547 577 3
a 577 547 3
a 549 579 3
a 579 549 3
a 549 550 9
a 550 549 9
a 550 580 3
a 580 550 3
a 550 551 10
a 551 550 10
a 551 581 2
a 581 551 2
a 551 552 3
a 552 551 3
a 552 582 9
a 582 552 9
a 552 553 7
a 553 552 7
a 553 583 1
a 583 553 1
a 553 554 2
a 554 553 2
a 554 584 1
a 584 554 1
a 554 555 8
a 555 554 8
a 555 585 2
a 585 555 2
a 555 556 5
a 556 555 5
a 556 586 10
a 586 556 10
a 556 557 2
a 557 556 2
a 557 587 5
a 587 557 5
a 557 558 6
a 558 557 6
a 558 588 3
a 588 558 3
a 558 559 5
a 559 558 5
a 559 589 2
a 589 559 2
a 559 560 3
a 560 559 3
a 560 590 1
a 590 560 1
a 560 561 5
a 561 560 5
a 561 591 6
a 591 561 6
a 561 562 10
a 562 561 10
a 562 563 5
a 563 562 5
a 563 593 3
a 593 563 3
a 563 564 8
a 564 563 8
a 564 594 9
a 594 564 9
a 564 565 9
a 565 564 9
a 565 595 5
a 595 565 5
a 565 566 4
a 566 565 4
a 566 596 10
a 596 566 10
a 566 567 1
a 567 566 1
a 567 597 1
a 597 567 1
a 567 568 6
a 568 567 6
a 568 598 10
a 598 568 10
a 568 569 1
a 569 568 1
a 569 599 5
a 599 569 5
a 569 570 10
a 570 569 10
a 570 600 5
a 600 570 5
a 571 601 7
a 601 571 7
a 571 572 5
a 572 571 5
a 572 602 7
a 602 572 7
a 572 573 6
a 573 572 6
a 573 603 4
a 603 573 4
a 573 574 8
a 574 573 8
a 574 575 4
a 575 574 4
a 575 605 10
a 605 575 10
a 575 576 10
a 576 575 10
a 576 606 8
a 606 576 8
a 576 577 5
a 577 576 5
a 577 607 5
a 607 577 5
a 577 578 1
a 578 577 1
a 578 608 10
a 608 578 10
a 578 579 6
a 579 578 6
a 579 609 9
a 609 579 9
a 579 580 3
a 580 579 3
a 580 610 9
a 610 580 9
a 580 581 7
a 581 580 7
a 581 611 10
a 611 581 10
a 581 582 2
a 582 581 2
a 582 612 4
a 612 582 4
a 582 583 7
a 583 582 7
a 583 613 9
a 613 583 9
a 583 584 2
a 584 583 2
a 584 614 5
a 614 584 5
a 584 585 2
a 585 584 2
a 585 615 8
a 615 585 8
a 585 586 9
a 586 585 9
a 586 616 8
a 616 586 8
a 586 587 10
a 587 586 10
a 587 617 3
a 617 587 3
a 587 588 4
a 588 587 4
a 588 618 8
a 618 588 8
a 588 589 4
a 589 588 4
a 589 619 1
a 619 589 1
a 589 590 5
a 590 589 5
a 590 620 5
a 620 590 5
a 590 591 2
a 591 590 2
a 591 621 6
a 621 591 6
a 593 623 3
a 623 593 3
a 593 594 3
a 594 593 3
a 594 624 8
a 624 594 8
a 594 595 8
a 595 594 8
a 595 625 1
a 625 595 1
a 595 596 7
a 596 595 7
a 596 626 5
a 626 596 5
a 596 597 5
a 597 596 5
a 597 627 4
a 627 597 4
a 597 598 7
a 598 597 7
a 598 628 1
a 628 598 1
a 598 599 7
a 599 598 7
a 599 629 7
a 629 599 7
a 599 600 9
a 600 599 9
a 600 630 8
a 630 600 8
a 601 631 6
a 631 601 6
a 601 602 6
a 602 601 6
a 602 632 3
a 632 602 3
a 602 603 9
a 603 602 9
a 603 633 6
a 633 603 6
a 605 635 3
a 635 605 3
a 605 606 10
a 606 605 10
a 606 636 5
a 636 606 5
a 606 607 8
a 607 606 8
a 607 637 5
a 637 607 5
a 607 608 8
a 608 607 8
a 608 638 4
a 638 608 4
a 608 609 3
a 609 608 3
a 609 639 3
a 639 609 3
a 609 610 8
a 610 609 8
a 610 640 2
a 640 610 2
a 610 611 6
a 611 610 6
a 611 641 10
a 641 611 10
a 611 612 2
a 612 611 2
a 612 613 1
a 613 612 1
a 613 643 6
a 643 613 6
a 613 614 9
a 614 613 9
a 614 615 8
a 615 614 8
a 615 645 7
a 645 615 7
a 615 616 5
a 616 615 5
a 616 646 3
a 646 616 3
a 616 617 7
a 617 616 7
a 617 647 4
a 647 617 4
a 617 618 10
a 618 617 10
a 618 648 6
a 648 618 6
a 618 619 4
a 619 618 4
a 619 649 8
a 649 619 8
a 619 620 8
a 620 619 8
a 620 650 4
a 650 620 4
a 620 621 5
a 621 620 5
a 621 651 5
a 651 621 5
a 621 622 4
a 622 621 4
a 622 652 4
a 652 622 4
a 622 623 2
a 623 622 2
a 623 653 10
a 653 623 10
a 623 624 9
a 624 623 9
a 624 654 9
a 654 624 9
a 624 625 3
a 625 624 3
a 625 655 4
a 655 625 4
a 625 626 4
a 626 625 4
a 626 656 7
a 656 626 7
a 626 627 5
a 627 626 5
a 627 657 5
a 657 627 5
a 627 628 1
a 628 627 1
a 628 658 1
a 658 628 1
a 628 629 1
a 629 628 1
a 629 659 2
a 659 629 2
a 629 630 9
a 630 629 9
a 630 660 6
a 660 630 6
a 631 661 5
a 661 631 5
a 631 632 6
a 632 631 6
a 632 633 3
a 633 632 3
a 633 663 2
a 663 633 2
a 633 634 7
a 634 633 7
a 634 664 1
a 664 634 1
a 634 635 4
a 635 634 4
a 635 665 7
a 665 635 7
a 635 636 3
a 636 635 3
a 636 666 8
a 666 636 8
a 636 637 10
a 637 636 10
a 637 667 3
a 667 637 3
a 637 638 4
a 638 637 4
a 638 668 3
a 668 638 3
a 638 639 10
a 639 638 10
a 639 669 3
a 669 639 3
a 639 640 5
a 640 639 5
a 640 670 5
a 670 640 5
a 640 641 6
a 641 640 6
a 641 671 4
a 671 641 4
a 643 673 4
a 673 643 4
a 645 675 8
a 675 645 8
a 645 646 4
a 646 645 4
a 646 676 2
a 676 646 2
a 646 647 8
a 647 646 8
a 647 677 2
a 677 647 2
a 647 648 9
a 648 647 9
a 648 678 9
a 678 648 9
a 648 649 2
a 649 648 2
a 649 679 2
a 679 649 2
a 649 650 5
a 650 649 5
a 650 680 1
a 680 650 1
a 650 651 8
a 651 650 8
a 651 681 1
a 681 651 1
a 651 652 6
a 652 651 6
a 652 682 9
a 682 652 9
a 652 653 2
a 653 652 2
a 653 683 3
a 683 653 3
a 653 654 7
a 654 653 7
a 654 684 10
a 684 654 10
a 654 655 8
a 655 654 8
a 655 685 10
a 685 655 10
a 655 656 5
a 656 655 5
a 656 686 4
a 686 656 4
a 656 657 5
a 657 656 5
a 657 687 2
a 687 657 2
a 657 658 2
a 658 657 2
a 658 688 9
a 688 658 9
a 658 659 1
a 659 658 1
a 659 689 8
a 689 659 8
a 659 660 3
a 660 659 3
a 660 690 8
a 690 660 8
a 661 691 6
a 691 661 6
a 663 693 2
a 693 663 2
a 663 664 1
a 664 663 1
a 664 694 3
a 694 664 3
a 664 665 3
a 665 664 3
a 665 695 4
a 695 665 4
a 665 666 3
a 666 665 3
a 666 696 9
a 696 666 9
a 666 667 2
a 667 666 2
a 667 697 5
a 697 667 5
a 667 668 1
a 668 667 1
a 668 698 7
a 698 668 7
a 668 669 5
a 669 668 5
a 669 699 9
a 699 669 9
a 669 670 8
a 670 669 8
a 670 700 5
a 700 670 5
a 670 671 2
a 671 670 2
a 671 701 6
a 701 671 6
a 671 672 2
a 672 671 2
a 672 673 4
a 673 672 4
a 673 703 1
a 703 673 1
a 673 674 2
a 674 673 2
a 674 704 5
a 704 674 5
a 674 675 6
a 675 674 6
a 675 705 5
a 705 675 5
a 675 676 9
a 676 675 9
a 676 706 6
a 706 676 6
a 676 677 2
a 677 676 2
a 677 707 2
a 707 677 2
a 677 678 5
a 678 677 5
a 678 708 10
a 708 678 10
a 678 679 5
a 679 678 5
a 679 709 9
a 709 679 9
a 679 680 10
a 680 679 10
a 680 710 3
a 710 680 3
a 680 681 4
a 681 680 4
a 681 682 3
a 682 681 3
a 682 712 9
a 712 682 9
a 682 683 9
a 683 682 9
a 683 713 6
a 713 683 6
a 683 684 3
a 684 683 3
a 684 714 8
a 714 684 8
a 684 685 9
a 685 684 9
a 685 715 5
a 715 685 5
a 685 686 8
a 686 685 8
a 686 716 1
a 716 686 1
a 686 687 4
a 687 686 4
a 687 717 7
a 717 687 7
a 687 688 10
a 688 687 10
a 688 718 6
a 718 688 6
a 688 689 8
a 689 688 8
a 689 719 9
a 719 689 9
a 689 690 6
a 690 689 6
a 690 720 9
a 720 690 9
a 691 721 7
a 721 691 7
a 691 692 2
a 692 691 2
a 692 722 9
a 722 692 9
a 692 693 5
a 693 692 5
a 693 723 8
a 723 693 8
a 693 694 6
a 694 693 6
a 694 724 9
a 724 694 9
a 694 695 10
a 695 694 10
a 695 725 1
a 725 695 1
a 695 696 9
a 696 695 9
a 696 726 3
a 726 696 3
a 696 697 7
a 697 696 7
a 697 727 2
a 727 697 2
a 697 698 3
a 698 697 3
a 698 699 3
a 699 698 3
a 699 729 2
a 729 699 2
a 699 700 9
a 700 699 9
a 700 730 7
a 730 700 7
a 700 701 2
a 701 700 2
a 701 731 3
a 731 701 3
a 703 733 10
a 733 703 10
a 703 704 6
a 704 703 6
a 704 734 7
a 734 704 7
a 704 705 9
a 705 704 9
a 705 735 3
a 735 705 3
a 705 706 1
a 706 705 1
a 706 736 4
a 736 706 4
a 706 707 3
a 707 706 3
a 707 737 7
a 737 707 7
a 707 708 4
a 708 707 4
a 708 738 2
a 738 708 2
a 708 709 8
a 709 708 8
a 709 739 2
a 739 709 2
a 709 710 4
a 710 709 4
a 712 742 6
a 742 712 6
a 712 713 2
a 713 712 2
a 713 743 2
a 743 713 2
a 713 714 2
a 714 713 2
a 714 744 1
a 744 714 1
a 714 715 9
a 715 714 9
a 715 745 8
a 745 715 8
a 715 716 9
a 716 715 9
a 716 746 10
a 746 716 10
a 716 717 8
a 717 716 8
a 717 747 6
a 747 717 6
a 717 718 2
a 718 717 2
a 718 748 7
a 748 718 7
a 718 719 3
a 719 718 3
a 719 749 4
a 749 719 4
a 719 720 10
a 720 719 10
a 720 750 3
a 750 720 3
a 721 751 7
a 751 721 7
a 721 722 7
a 722 721 7
a 722 752 3
a 752 722 3
a 722 723 8
a 723 722 8
a 723 753 5
a 753 723 5
a 723 724 6
a 724 723 6
a 724 754 4
a 754 724 4
a 724 725 8
a 725 724 8
a 725 755 7
a 755 725 7
a 725 726 7
a 726 725 7
a 726 756 2
a 756 726 2
a 726 727 9
a 727 726 9
a 727 757 6
a 757 727 6
a 729 759 4
a 759 729 4
a 729 730 6
a 730 729 6
a 730 760 1
a 760 730 1
a 730 731 10
a 731 730 10
a 731 761 8
a 761 731 8
a 731 732 10
a 732 731 10
a 732 762 8
a 762 732 8
a 732 733 7
a 733 732 7
a 733 763 1
a 763 733 1
a 733 734 3
a 734 733 3
a 734 764 2
a 764 734 2
a 734 735 8
a 735 734 8
a 735 765 10
a 765 735 10
a 735 736 7
a 736 735 7
a 736 766 2
a 766 736 2
a 736 737 6
a 737 736 6
a 737 767 2
a 767 737 2
a 737 738 8
a 738 737 8
a 738 768 5
a 768 738 5
a 738 739 8
a 739 738 8
a 739 769 7
a 769 739 7
a 741 771 10
a 771 741 10
a 741 742 10
a 742 741 10
a 742 772 2
a 772 742 2
a 742 743 3
a 743 742 3
a 743 773 10
a 773 743 10
a 743 744 9
a 744 743 9
a 744 774 9
a 774 744 9
a 744 745 10
a 745 744 10
a 745 775 10
a 775 745 10
a 745 746 2
a 746 745 2
a 746 776 1
a 776 746 1
a 746 747 3
a 747 746 3
a 747 777 6
a 777 747 6
a 747 748 5
a 748 747 5
a 748 778 9
a 778 748 9
a 748 749 10
a 749 748 10
a 749 779 1
a 779 749 1
a 749 750 2
a 750 749 2
a 750 780 1
a 780 750 1
a 751 781 6
a 781 751 6
a 751 752 2
a 752 751 2
a 752 782 1
a 782 752 1
a 752 753 7
a 753 752 7
a 753 783 1
a 783 753 1
a 753 754 4
a 754 753 4
a 754 784 1
a 784 754 1
a 754 755 2
a 755 754 2
a 755 785 8
a 785 755 8
a 755 756 5
a 756 755 5
a 756 786 10
a 786 756 10
a 756 757 8
a 757 756 8
a 757 787 6
a 787 757 6
a 757 758 7
a 758 757 7
a 758 788 1
a 788 758 1
a 758 759 7
a 759 758 7
a 759 760 6
a 760 759 6
a 760 790 2
a 790 760 2
a 760 761 5
a 761 760 5
a 761 791 9
a 791 761 9
a 761 762 4
a 762 761 4
a 762 792 2
a 792 762 2
a 762 763 10
a 763 762 10
a 763 793 9
a 793 763 9
a 763 764 9
a 764 763 9
a 764 794 10
a 794 764 10
a 764 765 6
a 765 764 6
a 765 795 1
a 795 765 1
a 765 766 7
a 766 765 7
a 766 796 5
a 796 766 5
a 766 767 5
a 767 766 5
a 767 797 10
a 797 767 10
a 767 768 10
a 768 767 10
a 768 798 3
a 798 768 3
a 768 769 2
a 769 768 2
a 769 799 8
a 799 769 8
a 769 770 5
a 770 769 5
a 770 800 9
a 800 770 9
a 770 771 5
a 771 770 5
a 771 801 6
a 801 771 6
a 771 772 6
a 772 771 6
a 772 802 2
a 802 772 2
a 772 773 6
a 773 772 6
a 773 803 5
a 803 773 5
a 773 774 10
a 774 773 10
a 774 804 9
a 804 774 9
a 774 775 10
a 775 774 10
a 775 805 8
a 805 775 8
a 775 776 8
a 776 775 8
a 776 777 10
a 777 776 10
a 777 807 9
a 807 777 9
a 777 778 4
a 778 777 4
a 778 808 7
a 808 778 7
a 778 779 6
a 779 778 6
a 779 809 4
a 809 779 4
a 779 780 3
a 780 779 3
a 780 810 5
a 810 780 5
a 781 811 7
a 811 781 7
a 781 782 10
a 782 781 10
a 782 812 2
a 812 782 2
a 782 783 8
a 783 782 8
a 783 813 1
a 813 783 1
a 783 784 8
a 784 783 8
a 784 814 8
a 814 784 8
a 784 785 3
a 785 784 3
a 785 815 1
a 815 785 1
a 785 786 9
a 786 785 9
a 786 816 10
a 816 786 10
a 786 787 3
a 787 786 3
a 787 817 1
a 817 787 1
a 787 788 2
a 788 787 2
a 788 818 9
a 818 788 9
a 790 820 4
a 820 790 4
a 790 791 10
a 791 790 10
a 791 821 6
a 821 791 6
a 791 792 9
a 792 791 9
a 792 822 1
a 822 792 1
a 792 793 5
a 793 792 5
a 793 823 6
a 823 793 6
a 793 794 6
a 794 793 6
a 794 824 6
a 824 794 6
a 794 795 7
a 795 794 7
a 795 825 7
a 825 795 7
a 795 796 1
a 796 795 1
a 796 826 7
a 826 796 7
a 796 797 3
a 797 796 3
a 797 827 6
a 827 797 6
a 797 798 6
a 798 797 6
a 798 828 6
a 828 798 6
a 798 799 1
a 799 798 1
a 799 829 7
a 829 799 7
a 799 800 4
a 800 799 4
a 800 830 6
a 830 800 6
a 800 801 10
a 801 800 10
a 801 831 10
a 831 801 10
a 801 802 5
a 802 801 5
a 802 832 1
a 832 802 1
a 802 803 2
a 803 802 2
a 803 833 1
a 833 803 1
a 803 804 2
a 804 803 2
a 804 834 8
a 834 804 8
a 804 805 10
a 805 804 10
a 805 835 7
a 835 805 7
a 807 837 2
a 837 807 2
a 807 808 6
a 808 807 6
a 808 838 7
a 838 808 7
a 808 809 10
a 809 808 10
a 809 839 2
a 839 809 2
a 809 810 1
a 810 809 1
a 810 840 7
a 840 810 7
a 811 841 4
a 841 811 4
a 811 812 7
a 812 811 7
a 812 842 10
a 842 812 10
a 812 813 2
a 813 812 2
a 813 843 4
a 843 813 4
a 813 814 4
a 814 813 4
a 814 844 8
a 844 814 8
a 814 815 3
a 815 814 3
a 815 845 4
a 845 815 4
a 815 816 4
a 816 815 4
a 816 846 9
a 846 816 9
a 816 817 7
a 817 816 7
a 817 847 5
a 847 817 5
a 817 818 6
a 818 817 6
a 818 819 6
a 819 818 6
a 819 849 3
a 849 819 3
a 819 820 2
a 820 819 2
a 820 850 8
a 850 820 8
a 820 821 9
a 821 820 9
a 821 851 9
a 851 821 9
a 821 822 9
a 822 821 9
a 822 852 1
a 852 822 1
a 822 823 4
a 823 822 4
a 823 853 2
a 853 823 2
a 823 824 7
a 824 823 7
a 824 854 7
a 854 824 7
a 824 825 7
a 825 824 7
a 825 855 6
a 855 825 6
a 825 826 7
a 826 825 7
a 826 827 7
a 827 826 7
a 827 857 7
a 857 827 7
a 827 828 2
a 828 827 2
a 828 858 5
a 858 828 5
a 828 829 3
a 829 828 3
a 829 859 5
a 859 829 5
a 829 830 6
a 830 829 6
a 830 860 4
a 860 830 4
a 830 831 4
a 831 830 4
a 831 861 6
a 861 831 6
a 831 832 2
a 832 831 2
a 832 862 6
a 862 832 6
a 832 833 1
a 833 832 1
a 833 863 4
a 863 833 4
a 833 834 10
a 834 833 10
a 834 864 1
a 864 834 1
a 834 835 9
a 835 834 9
a 835 865 1
a 865 835 1
a 835 836 8
a 836 835 8
a 836 866 6
a 866 836 6
a 836 837 6
a 837 836 6
a 837 867 5
a 867 837 5
a 837 838 1
a 838 837 1
a 838 868 7
a 868 838 7
a 838 839 4
a 839 838 4
a 839 869 10
a 869 839 10
a 839 840 10
a 840 839 10
a 840 870 10
a 870 840 10
a 841 871 6
a 871 841 6
a 841 842 8
a 842 841 8
a 842 872 5
a 872 842 5
a 842 843 6
a 843 842 6
a 843 873 4
a 873 843 4
a 843 844 3
a 844 843 3
a 844 874 9
a 874 844 9
a 844 845 5
a 845 844 5
a 845 875 7
a 875 845 7
a 845 846 7
a 846 845 7
a 846 876 8
a 876 846 8
a 846 847 6
a 847 846 6
a 847 877 2
a 877 847 2
a 849 879 3
a 879 849 3
a 849 850 2
a 850 849 2
a 850 880 1
a 880 850 1
a 850 851 3
a 851 850 3
a 851 881 1
a 881 851 1
a 851 852 1
a 852 851 1
a 852 882 1
a 882 852 1
a 852 853 8
a 853 852 8
a 853 883 4
a 883 853 4
a 853 854 3
a 854 853 3
a 854 884 10
a 884 854 10
a 854 855 1
a 855 854 1
a 855 885 9
a 885 855 9
a 857 887 10
a 887 857 10
a 857 858 5
a 858 857 5
a 858 888 6
a 888 858 6
a 858 859 4
a 859 858 4
a 859 889 6
a 889 859 6
a 859 860 10
a 860 859 10
a 860 890 2
a 890 860 2
a 860 861 1
a 861 860 1
a 861 891 8
a 891 861 8
a 861 862 5
a 862 861 5
a 862 892 10
a 892 862 10
a 862 863 8
a 863 862 8
a 863 893 9
a 893 863 9
a 863 864 3
a 864 863 3
a 864 894 4
a 894 864 4
a 864 865 6
a 865 864 6
a 865 895 4
a 895 865 4
a 865 866 2
a 866 865 2
a 866 896 10
a 896 866 10
a 866 867 9
a 867 866 9
a 867 897 6
a 897 867 6
a 867 868 2
a 868 867 2
a 868 898 1
a 898 868 1
a 868 869 8
a 869 868 8
a 869 899 2
a 899 869 2
a 869 870 10
a 870 869 10
a 870 900 2
a 900 870 2
a 871 872 10
a 872 871 10
a 872 873 9
a 873 872 9
a 873 874 7
a 874 873 7
a 874 875 1
a 875 874 1
a 875 876 6
a 876 875 6
a 876 877 8
a 877 876 8
a 877 878 5
a 878 877 5
a 878 879 10
a 879 878 10
a 879 880 7
a 880 879 7
a 880 881 9
a 881 880 9
a 881 882 7
a 882 881 7
a 882 883 6
a 883 882 6
a 883 884 7
a 884 883 7
a 884 885 10
a 885 884 10
a 885 886 5
a 886 885 5
a 886 887 1
a 887 886 1
a 887 888 9
a 888 887 9
a 888 889 7
a 889 888 7
a 889 890 4
a 890 889 4
a 890 891 1
a 891 890 1
a 891 892 6
a 892 891 6
a 892 893 6
a 893 892 6
a 893 894 5
a 894 893 5
a 894 895 4
a 895 894 4
a 895 896 6
a 896 895 6
a 896 897 4
a 897 896 4
a 897 898 7
a 898 897 7
a 898 899 4
a 899 898 4
a 899 900 8
a 900 899 8
